# Objective value = 20.00000002
is_xfc[1] 0
is_xfc[3] 1
is_xfc[4] 0
is_xfc[2] 0
dist_Node(1)_Node(1) 0
xfc_Node(1)_Node(1) 1.0000000020000002e+01
dist_Node(1)_Node(3) 1e-08
xfc_Node(1)_Node(3) 1.0000000827403710e-08
dist_Node(1)_Node(4) 10.00000001
xfc_Node(1)_Node(4) 2.0000000030000002e+01
dist_Node(1)_Node(2) 1.0000000020000002e+01
xfc_Node(1)_Node(2) 2.0000000040000003e+01
dist_Node(3)_Node(3) 0
xfc_Node(3)_Node(3) 0
dist_Node(3)_Node(4) 10
xfc_Node(3)_Node(4) 20.00000002
dist_Node(3)_Node(2) 10.00000001
xfc_Node(3)_Node(2) 2.0000000030000002e+01
dist_Node(4)_Node(4) 0
xfc_Node(4)_Node(4) 1.0000000020000002e+01
dist_Node(4)_Node(2) 1e-08
xfc_Node(4)_Node(2) 1.0000000030000002e+01
dist_Node(2)_Node(2) 0
xfc_Node(2)_Node(2) 1.0000000020000002e+01
min_Node(1) 0
min_Node(3) -2.0000001654807420e-08
min_Node(4) 1.0000000020000002e+01
min_Node(2) 1.0000000020000002e+01
